units metal
atom_style atomic

read_data water.data

pair_style metatomic &
        pet-mad-v1.0.2.pt &
        uncertainty_threshold off &
        device cpu

pair_coeff * * 1 8

neighbor 2.0 bin
timestep 0.0005

thermo 10

velocity all create 300 87287 mom yes rot yes

fix 1 all nve

run 100
